
-8.3
-7.8
-7.8
-7.8
-7.8
-7.7
-7.7
-7.7
-7.6
-7.6
-7.6
-7.6
-7.6
-7.6
-7.6
-7.6
-7.6
-7.6
-7.6
-7.6
-17.1
-7.8
-7.6
-7.6
-7.4
-7.3
-7.3
-7.3
-7.3
-7.3
-7.3
-7.3
-7.3
-7.3
-7.3
-7.3
-7.3
-7.3
-7.3
-7.3
-7.3